c 4 __UCLIBC_HAS_FLOATS__
c 2 __UCLIBC_HAS_XLOCALE__
c 5 __UCLIBC_HAS_LOCALE__
c 7 __UCLIBC_HAS_HEXADECIMAL_FLOATS__
c 6 __UCLIBC_HAS_WCHAR__
c 3 __UCLIBC_HAS_THREADS__
c 1 __UCLIBC_HAS_GLIBC_DIGIT_GROUPING__
p cnf 7 1
-4 -5 -2 -3 -1 6 7 1
